Instance: Data/Instances_txt/inst_200_10_1.txt
SetUpTime: 139.81930303573608

Gurobi 10.0.1 (mac64[x86]) logging started Di  1 Aug 20:50:11 2023

Set parameter LogFile to value "Output/MILP_RELAXED_inst_200_10_1_2023-08-01_16-28-50.txt"
Set parameter TimeLimit to value 2700

Gurobi 10.0.1 (mac64[x86]) logging started Di  1 Aug 20:50:11 2023

Set parameter LogFile to value "Output/MILP_RELAXED_inst_200_10_1_2023-08-01_16-28-50.txt"
Gurobi Optimizer version 10.0.1 build v10.0.1rc0 (mac64[x86])

CPU model: Intel(R) Core(TM) i5-1038NG7 CPU @ 2.00GHz
Thread count: 4 physical cores, 8 logical processors, using up to 8 threads

Optimize a model with 401 rows, 96489 columns and 480975 nonzeros
Model fingerprint: 0xff931059
Coefficient statistics:
  Matrix range     [1e+00, 1e+00]
  Objective range  [1e+00, 2e+04]
  Bounds range     [1e+00, 1e+00]
  RHS range        [1e+00, 1e+00]
Presolve removed 14 rows and 14 columns
Presolve time: 0.23s
Presolved: 387 rows, 96475 columns, 480933 nonzeros

Concurrent LP optimizer: dual simplex and barrier
Showing barrier log only...

Ordering time: 0.00s

Barrier statistics:
 AA' NZ     : 3.815e+04
 Factor NZ  : 6.630e+04 (roughly 40 MB of memory)
 Factor Ops : 1.437e+07 (less than 1 second per iteration)
 Threads    : 3

                  Objective                Residual
Iter       Primal          Dual         Primal    Dual     Compl     Time
   0   4.95414905e+07  3.70680000e+04  8.82e+02 0.00e+00  1.50e+00     0s
   1   7.44716439e+06 -1.77424441e+05  1.28e+02 8.53e-14  2.27e-01     0s
   2   1.07004897e+06 -4.74088873e+04  1.27e+01 6.39e-14  2.88e-02     0s
   3   5.79909142e+05  4.27694198e+04  4.01e+00 7.11e-14  1.28e-02     0s
   4   4.16448683e+05  1.40926616e+05  1.18e+00 5.68e-14  6.04e-03     0s
   5   3.54525334e+05  2.54353128e+05  2.74e-01 6.75e-14  2.03e-03     0s
   6   3.29130299e+05  2.72817222e+05  7.17e-02 8.53e-14  1.13e-03     0s
   7   3.19610678e+05  2.74200526e+05  3.75e-02 7.11e-14  9.16e-04     0s
   8   3.10457805e+05  2.83535722e+05  1.70e-02 8.88e-14  5.44e-04     1s
   9   3.03668723e+05  2.89121321e+05  7.31e-03 7.28e-14  2.95e-04     1s
  10   3.00008213e+05  2.91712080e+05  3.20e-03 7.11e-14  1.68e-04     1s
  11   2.96541557e+05  2.92820432e+05  9.58e-04 9.24e-14  7.55e-05     1s
  12   2.95742464e+05  2.93521826e+05  5.36e-04 8.53e-14  4.51e-05     1s
  13   2.94756124e+05  2.94053219e+05  1.43e-04 1.14e-13  1.43e-05     1s
  14   2.94333813e+05  2.94194617e+05  1.64e-05 9.95e-14  2.83e-06     1s
  15   2.94269480e+05  2.94213760e+05  4.73e-06 8.53e-14  1.13e-06     1s
  16   2.94248227e+05  2.94231498e+05  1.38e-06 1.14e-13  3.40e-07     1s
  17   2.94244031e+05  2.94234474e+05  7.66e-07 1.24e-13  1.94e-07     1s
  18   2.94239359e+05  2.94236675e+05  1.06e-07 1.24e-13  5.44e-08     1s
  19   2.94239199e+05  2.94238159e+05  8.68e-08 3.41e-13  2.13e-08     1s
  20   2.94238782e+05  2.94238430e+05  3.04e-08 3.41e-13  7.21e-09     1s
  21   2.94238536e+05  2.94238520e+05  1.93e-08 3.98e-13  3.04e-10     1s
  22   2.94238526e+05  2.94238525e+05  2.18e-08 3.98e-13  2.70e-11     1s

Barrier solved model in 22 iterations and 0.91 seconds (0.64 work units)
Optimal objective 2.94238526e+05

Crossover log...

     218 DPushes remaining with DInf 0.0000000e+00                 1s
       0 DPushes remaining with DInf 0.0000000e+00                 1s

      40 PPushes remaining with PInf 2.9110618e-06                 1s
       0 PPushes remaining with PInf 0.0000000e+00                 1s

  Push phase complete: Pinf 0.0000000e+00, Dinf 6.4046546e-12      1s


Solved with barrier
Iteration    Objective       Primal Inf.    Dual Inf.      Time
     259    2.9423853e+05   0.000000e+00   0.000000e+00      1s

Solved in 259 iterations and 1.02 seconds (0.69 work units)
Optimal objective  2.942385250e+05

User-callback calls 509, time in user-callback 0.00 sec

=========================

OUTPUT STATISTICS
Relaxed: true
Time since start: 142.82676005363464
SetUpTime: 139.81930303573608
Objective value: 294238.525
Number of variables: 96489
Solving time: 3.0064430236816406
